
Gurobi 7.5.2 (linux64) logging started Thu Mar 21 01:05:30 2019

Changed value of parameter LogFile to /home/aniket/python_scripts/Plasmids/exp/2019-03-21__iterative_with_questionable/output/sample_103/1.2.1/nplasmids_1/MILP/m.log
   Prev: gurobi.log  Default: 
Changed value of parameter TimeLimit to 2400.0
   Prev: 1e+100  Min: 0.0  Max: 1e+100  Default: 1e+100
Optimize a model with 2793 rows, 809 columns and 10596 nonzeros
Variable types: 220 continuous, 589 integer (297 binary)
Coefficient statistics:
  Matrix range     [2e-01, 1e+06]
  Objective range  [8e-04, 5e+05]
  Bounds range     [1e+00, 1e+00]
  RHS range        [3e-01, 1e+06]
Presolve removed 2351 rows and 564 columns
Presolve time: 0.01s
Presolved: 442 rows, 245 columns, 1460 nonzeros
Variable types: 52 continuous, 193 integer (142 binary)
Found heuristic solution: objective -134551.5976

Root relaxation: objective -3.772397e+05, 300 iterations, 0.00 seconds

    Nodes    |    Current Node    |     Objective Bounds      |     Work
 Expl Unexpl |  Obj  Depth IntInf | Incumbent    BestBd   Gap | It/Node Time

     0     0 -377239.75    0   42 -134551.60 -377239.75   180%     -    0s
     0     0 -284123.41    0   18 -134551.60 -284123.41   111%     -    0s
     0     0 -284122.25    0   14 -134551.60 -284122.25   111%     -    0s
     0     0 -283929.77    0   11 -134551.60 -283929.77   111%     -    0s
H    0     0                    -283914.4966 -283929.77  0.01%     -    0s

Cutting planes:
  Gomory: 4
  Cover: 19
  Implied bound: 2
  Clique: 6
  MIR: 8
  Flow cover: 17
  Zero half: 3

Explored 1 nodes (410 simplex iterations) in 0.03 seconds
Thread count was 4 (of 4 available processors)

Solution count 2: -283914 -134552 

Optimal solution found (tolerance 1.00e-04)
Best objective -2.839144965628e+05, best bound -2.839297724278e+05, gap 0.0054%

Gurobi 7.5.2 (linux64) logging started Thu Mar 21 01:05:30 2019

Changed value of parameter LogFile to /home/aniket/python_scripts/Plasmids/exp/2019-03-21__iterative_with_questionable/output/sample_103/1.2.1/nplasmids_1/MILP/m.log
   Prev: gurobi.log  Default: 
Changed value of parameter TimeLimit to 2400.0
   Prev: 1e+100  Min: 0.0  Max: 1e+100  Default: 1e+100
Optimize a model with 2442 rows, 707 columns and 8679 nonzeros
Variable types: 193 continuous, 514 integer (258 binary)
Coefficient statistics:
  Matrix range     [2e-01, 1e+06]
  Objective range  [9e-04, 4e+05]
  Bounds range     [1e+00, 1e+00]
  RHS range        [3e-01, 1e+06]
Presolve removed 2012 rows and 471 columns
Presolve time: 0.01s
Presolved: 430 rows, 236 columns, 1412 nonzeros
Variable types: 51 continuous, 185 integer (134 binary)
Found heuristic solution: objective -135723.5280

Root relaxation: objective -1.443120e+05, 126 iterations, 0.00 seconds

    Nodes    |    Current Node    |     Objective Bounds      |     Work
 Expl Unexpl |  Obj  Depth IntInf | Incumbent    BestBd   Gap | It/Node Time

     0     0 -144312.03    0   12 -135723.53 -144312.03  6.33%     -    0s
     0     0 -141447.49    0    4 -135723.53 -141447.49  4.22%     -    0s
*    0     0               0    -141425.7084 -141425.71  0.00%     -    0s

Explored 1 nodes (214 simplex iterations) in 0.03 seconds
Thread count was 4 (of 4 available processors)

Solution count 2: -141426 -135724 

Optimal solution found (tolerance 1.00e-04)
Best objective -1.414257084078e+05, best bound -1.414257084078e+05, gap 0.0000%

Gurobi 7.5.2 (linux64) logging started Thu Mar 21 01:05:30 2019

Changed value of parameter LogFile to /home/aniket/python_scripts/Plasmids/exp/2019-03-21__iterative_with_questionable/output/sample_103/1.2.1/nplasmids_1/MILP/m.log
   Prev: gurobi.log  Default: 
Changed value of parameter TimeLimit to 2400.0
   Prev: 1e+100  Min: 0.0  Max: 1e+100  Default: 1e+100
Optimize a model with 2404 rows, 696 columns and 8479 nonzeros
Variable types: 190 continuous, 506 integer (254 binary)
Coefficient statistics:
  Matrix range     [2e-01, 1e+06]
  Objective range  [9e-04, 4e+05]
  Bounds range     [1e+00, 1e+00]
  RHS range        [2e-01, 1e+06]
Presolve removed 1982 rows and 464 columns
Presolve time: 0.01s
Presolved: 422 rows, 232 columns, 1383 nonzeros
Variable types: 50 continuous, 182 integer (132 binary)
Found heuristic solution: objective -686.9600097

Root relaxation: objective -1.136827e+04, 267 iterations, 0.00 seconds

    Nodes    |    Current Node    |     Objective Bounds      |     Work
 Expl Unexpl |  Obj  Depth IntInf | Incumbent    BestBd   Gap | It/Node Time

     0     0 -11368.271    0   43 -686.96001 -11368.271  1555%     -    0s
     0     0 -8916.9878    0   65 -686.96001 -8916.9878  1198%     -    0s
     0     0 -8910.0282    0   61 -686.96001 -8910.0282  1197%     -    0s
     0     0 -8831.1297    0   50 -686.96001 -8831.1297  1186%     -    0s
     0     0 -8752.5012    0   24 -686.96001 -8752.5012  1174%     -    0s
     0     0 -8727.8957    0   35 -686.96001 -8727.8957  1171%     -    0s
     0     0 -8727.8957    0   35 -686.96001 -8727.8957  1171%     -    0s
     0     0 -8724.3215    0   35 -686.96001 -8724.3215  1170%     -    0s
     0     0 -8695.4217    0   35 -686.96001 -8695.4217  1166%     -    0s
     0     0 -8693.0192    0   39 -686.96001 -8693.0192  1165%     -    0s
     0     0 -8692.0146    0   30 -686.96001 -8692.0146  1165%     -    0s
     0     0 -8686.7889    0   39 -686.96001 -8686.7889  1165%     -    0s
     0     0 -8685.8726    0   62 -686.96001 -8685.8726  1164%     -    0s
     0     0 -8685.7981    0   58 -686.96001 -8685.7981  1164%     -    0s
     0     0 -8685.7981    0   58 -686.96001 -8685.7981  1164%     -    0s
H    0     0                    -4416.446675 -8685.7981  96.7%     -    0s
     0     2 -8685.7981    0   58 -4416.4467 -8685.7981  96.7%     -    0s
*   26    10               8    -5592.728709 -8493.0216  51.9%  11.6    0s
*   35    10               7    -8484.529006 -8492.2320  0.09%   9.2    0s

Cutting planes:
  Gomory: 5
  Cover: 39
  Implied bound: 2
  Clique: 4
  MIR: 8
  StrongCG: 1
  Flow cover: 24
  Zero half: 1

Explored 43 nodes (972 simplex iterations) in 0.09 seconds
Thread count was 4 (of 4 available processors)

Solution count 4: -8484.53 -5592.73 -4416.45 -686.96 

Optimal solution found (tolerance 1.00e-04)
Best objective -8.484529005917e+03, best bound -8.484529005917e+03, gap 0.0000%

Gurobi 7.5.2 (linux64) logging started Thu Mar 21 01:05:30 2019

Changed value of parameter LogFile to /home/aniket/python_scripts/Plasmids/exp/2019-03-21__iterative_with_questionable/output/sample_103/1.2.1/nplasmids_1/MILP/m.log
   Prev: gurobi.log  Default: 
Changed value of parameter TimeLimit to 2400.0
   Prev: 1e+100  Min: 0.0  Max: 1e+100  Default: 1e+100
Optimize a model with 2363 rows, 684 columns and 8266 nonzeros
Variable types: 187 continuous, 497 integer (249 binary)
Coefficient statistics:
  Matrix range     [2e-01, 1e+06]
  Objective range  [9e-04, 4e+05]
  Bounds range     [1e+00, 1e+00]
  RHS range        [2e-01, 1e+06]
Presolve removed 1990 rows and 459 columns
Presolve time: 0.01s
Presolved: 373 rows, 225 columns, 1173 nonzeros
Variable types: 49 continuous, 176 integer (175 binary)

Root relaxation: objective -3.367699e+03, 255 iterations, 0.00 seconds

    Nodes    |    Current Node    |     Objective Bounds      |     Work
 Expl Unexpl |  Obj  Depth IntInf | Incumbent    BestBd   Gap | It/Node Time

     0     0 -3367.6991    0   29          - -3367.6991      -     -    0s
     0     0 -3005.4362    0   35          - -3005.4362      -     -    0s
     0     0 -2940.8034    0    4          - -2940.8034      -     -    0s
     0     0 -2918.1580    0    8          - -2918.1580      -     -    0s
     0     0 -2910.8338    0    4          - -2910.8338      -     -    0s
     0     0 -2910.5652    0    2          - -2910.5652      -     -    0s
     0     0 -2909.7004    0    2          - -2909.7004      -     -    0s
*    0     0               0    -2893.285378 -2893.2854  0.00%     -    0s

Cutting planes:
  Gomory: 9
  Cover: 24
  Implied bound: 5
  Clique: 10
  StrongCG: 1
  Flow cover: 2

Explored 1 nodes (362 simplex iterations) in 0.03 seconds
Thread count was 4 (of 4 available processors)

Solution count 1: -2893.29 

Optimal solution found (tolerance 1.00e-04)
Best objective -2.893285378372e+03, best bound -2.893285378372e+03, gap 0.0000%

Gurobi 7.5.2 (linux64) logging started Thu Mar 21 01:05:30 2019

Changed value of parameter LogFile to /home/aniket/python_scripts/Plasmids/exp/2019-03-21__iterative_with_questionable/output/sample_103/1.2.1/nplasmids_1/MILP/m.log
   Prev: gurobi.log  Default: 
Changed value of parameter TimeLimit to 2400.0
   Prev: 1e+100  Min: 0.0  Max: 1e+100  Default: 1e+100
Optimize a model with 2277 rows, 660 columns and 7833 nonzeros
Variable types: 181 continuous, 479 integer (239 binary)
Coefficient statistics:
  Matrix range     [2e-01, 1e+06]
  Objective range  [9e-04, 4e+05]
  Bounds range     [1e+00, 1e+00]
  RHS range        [2e-01, 1e+06]
Presolve removed 1924 rows and 448 columns
Presolve time: 0.01s
Presolved: 353 rows, 212 columns, 1107 nonzeros
Variable types: 47 continuous, 165 integer (164 binary)

Root relaxation: objective -2.875943e+03, 248 iterations, 0.00 seconds

    Nodes    |    Current Node    |     Objective Bounds      |     Work
 Expl Unexpl |  Obj  Depth IntInf | Incumbent    BestBd   Gap | It/Node Time

     0     0 -2875.9435    0   24          - -2875.9435      -     -    0s
     0     0 -2777.3305    0   37          - -2777.3305      -     -    0s
     0     0 -2770.3458    0   34          - -2770.3458      -     -    0s
     0     0 -2769.7285    0   34          - -2769.7285      -     -    0s
     0     0 -2767.5360    0   34          - -2767.5360      -     -    0s
     0     0 -2619.6130    0   54          - -2619.6130      -     -    0s
     0     0 -2596.0273    0   43          - -2596.0273      -     -    0s
     0     0 -2596.0273    0   48          - -2596.0273      -     -    0s
     0     0 -2556.7836    0   38          - -2556.7836      -     -    0s
H    0     0                    -1498.828333 -2556.7836  70.6%     -    0s
     0     0 -2546.3931    0   37 -1498.8283 -2546.3931  69.9%     -    0s
     0     0 -2545.1721    0   45 -1498.8283 -2545.1721  69.8%     -    0s
     0     0 -2545.0995    0   46 -1498.8283 -2545.0995  69.8%     -    0s
     0     0 -2457.9013    0   40 -1498.8283 -2457.9013  64.0%     -    0s
H    0     0                    -2100.211368 -2457.9013  17.0%     -    0s
     0     0 -2452.4375    0   39 -2100.2114 -2452.4375  16.8%     -    0s
     0     0 -2451.5176    0   39 -2100.2114 -2451.5176  16.7%     -    0s
     0     0 -2451.4599    0   39 -2100.2114 -2451.4599  16.7%     -    0s
     0     0 -2441.2478    0   39 -2100.2114 -2441.2478  16.2%     -    0s
     0     0 -2439.9684    0   48 -2100.2114 -2439.9684  16.2%     -    0s
     0     0 -2439.8245    0   48 -2100.2114 -2439.8245  16.2%     -    0s
     0     0 -2419.2469    0   56 -2100.2114 -2419.2469  15.2%     -    0s
H    0     0                    -2109.454402 -2419.2469  14.7%     -    0s
     0     0 -2418.3475    0   55 -2109.4544 -2418.3475  14.6%     -    0s
     0     0 -2418.3412    0   55 -2109.4544 -2418.3412  14.6%     -    0s
     0     0 -2416.7538    0   31 -2109.4544 -2416.7538  14.6%     -    0s
H    0     0                    -2341.571866 -2416.7538  3.21%     -    0s
     0     0 -2408.8494    0   69 -2341.5719 -2408.8494  2.87%     -    0s
     0     0 -2407.5220    0   68 -2341.5719 -2407.5220  2.82%     -    0s
     0     0 -2406.8795    0   68 -2341.5719 -2406.8795  2.79%     -    0s
     0     0 -2401.7208    0   20 -2341.5719 -2401.7208  2.57%     -    0s
H    0     0                    -2390.171539 -2401.7208  0.48%     -    0s
     0     0 -2401.7208    0    6 -2390.1715 -2401.7208  0.48%     -    0s
     0     0     cutoff    0      -2390.1715 -2390.1715  0.00%     -    0s

Cutting planes:
  Gomory: 1
  Implied bound: 16
  MIR: 2
  Flow cover: 1

Explored 1 nodes (797 simplex iterations) in 0.07 seconds
Thread count was 4 (of 4 available processors)

Solution count 5: -2390.17 -2341.57 -2109.45 ... -1498.83

Optimal solution found (tolerance 1.00e-04)
Best objective -2.390171538609e+03, best bound -2.390171538609e+03, gap 0.0000%

Gurobi 7.5.2 (linux64) logging started Thu Mar 21 01:05:30 2019

Changed value of parameter LogFile to /home/aniket/python_scripts/Plasmids/exp/2019-03-21__iterative_with_questionable/output/sample_103/1.2.1/nplasmids_1/MILP/m.log
   Prev: gurobi.log  Default: 
Changed value of parameter TimeLimit to 2400.0
   Prev: 1e+100  Min: 0.0  Max: 1e+100  Default: 1e+100
Optimize a model with 2200 rows, 637 columns and 7448 nonzeros
Variable types: 175 continuous, 462 integer (230 binary)
Coefficient statistics:
  Matrix range     [2e-01, 1e+06]
  Objective range  [9e-04, 4e+05]
  Bounds range     [1e+00, 1e+00]
  RHS range        [2e-01, 1e+06]
Presolve removed 876 rows and 0 columns
Presolve time: 0.00s

Explored 0 nodes (0 simplex iterations) in 0.00 seconds
Thread count was 1 (of 4 available processors)

Solution count 0

Model is infeasible or unbounded
Best objective -, best bound -, gap -
Presolve removed 876 rows and 0 columns
Presolve time: 0.00s

Explored 0 nodes (0 simplex iterations) in 0.00 seconds
Thread count was 1 (of 4 available processors)

Solution count 0

Model is infeasible
Best objective -, best bound -, gap -

Computing Irreducible Inconsistent Subsystem (IIS)...

      Constraints           Bounds       Runtime
     Min       Max       Min      Max
------------------------------------------------
        0     1847         0      407         0s
       65       65         0        0         1s

IIS computed: 65 constraints, 0 bounds
IIS runtime: 1.19 seconds
Warning: linear constraint 0 and linear constraint 1 have the same name "extr_ubd"
